NAME: instance_2512
TYPE: TSP
DIMENSION: 20
EDGE_WEIGHT_TYPE: EUC_2D
NODE_COORD_SECTION
0 7.73 65.28
1 7.26 51.65
2 0.94 35.48
3 79.48 14.35
4 65.59 61.35
5 25.15 61.29
6 70.86 87.87
7 66.87 23.03
8 87.53 50.29
9 83.09 48.88
10 28.37 56.66
11 4.42 80.33
12 17.71 10.17
13 90.18 64.10
14 20.85 51.99
15 38.42 83.13
16 55.42 72.04
17 72.56 9.25
18 20.61 49.03
19 58.08 65.34
EOF
